46
28
0 29 30 31 32 33 34 37 39 41 44 45
1 28 29 30 31 32 33 37 38 39 43 44
2 32 34 37 39 40 41
3 29 30 31 32 37 39 41 45
4 28 29 30 32 34 37 38 39 41 42 43
5 29 30 31 32 33 34 35 37 38 41 43 45
6 29 30 32 34 37 38 39 40 41 43
7 29 30 31 32 33 34 37 39 41 43 44
8 29 30 34 35 37 39 41
9 29 30 34 35 39 40 41 45
10 28 29 30 31 33 34 37 38 43
11 32 34 37 41 43
12 32 33 34 35 36 37 38 42 44
13 29 30 31 33 34 35 37 38 39 43
14 31 33 34 41 45
15 30 39 45
16 29 31 34 37 41 43 44
17 28 29 32 39 42
18 28 36 37 38
19 28 29 33 44
20 40 41 45
21 31 39 43 45
22 33 35 43
23 32 39
24 41
25
26 39 40 41
27
